letting n =  10
letting blocks =  [[1, 1], [1, 5], [1, 6], [2, 1], [2, 3], [2, 5], [2, 8], [2, 9], [2, 10], [3, 3], [3, 4], [3, 6], [3, 7], [3, 9], [3, 10], [4, 2], [4, 4], [4, 7], [4, 8], [5, 5], [5, 8], [6, 2], [6, 3], [6, 4], [6, 9], [6, 10], [7, 2], [7, 3], [7, 4], [7, 6], [7, 9], [7, 10], [8, 2], [8, 3], [8, 5], [8, 6], [8, 7], [8, 9], [9, 2], [9, 7], [9, 8], [9, 9], [9, 10], [10, 1], [10, 3], [10, 8]]
